\ENCODING=ISO-8859-1
\Problem name: IloCplex

Minimize
 obj: x3 + x6 + x9 + x12 + x15 + x18 + x21 + x24 + x27 + x30 + x33
Subject To
 c1:   - x1 + x3  = 0
 c2:   - x4 + x6  = 0
 c3:   - x7 + x9  = 0
 c4:   - x10 + x12  = 0
 c5:   - x13 + x15  = 0
 c6:   - x16 + x18  = 0
 c7:   - x19 + x21  = 0
 c8:   - x22 + x24  = 0
 c9:   - x25 + x27  = 0
 c10:  - x28 + x30  = 0
 c11:  - x31 + x33  = 0
 c12:  x34 <= 1
 c13:  x35 <= 1
 c14:  x36 <= 1
 c15:  x37 <= 1
 c16:  x38 <= 1
 c17:  x39 <= 1
 c18:  x40 <= 1
 c19:  x41 <= 1
 c20:  x42 <= 1
 c21:  x43 <= 1
 c22:  x44 <= 1
 c23:  x45 <= 1
 c24:  x46 <= 1
 c25:  x47 <= 1
 c26:  x48 <= 1
 c27:  x49 <= 1
 c28:  x50 <= 1
 c29:  x51 <= 1
 c30:  x52 <= 1
 c31:  x53 <= 1
 c32:  x54 <= 1
 c33:  x55 <= 1
 c34:  x56 <= 1
 c35:  x57 <= 1
 c36:  x58 <= 1
 c37:  x59 <= 1
 c38:  x60 <= 1
 c39:  x61 <= 1
 c40:  x62 <= 1
 c41:  x63 <= 1
 c42:  x64 <= 1
 c43:  x65 <= 1
 c44:  x66 <= 1
 c45:  x67 <= 1
 c46:  x68 <= 1
 c47:  x69 <= 1
 c48:  x70 <= 1
 c49:  x71 <= 1
 c50:  x72 <= 1
 c51:  x73 <= 1
 c52:  x74 <= 1
 c53:  x75 <= 1
 c54:  x76 <= 1
 c55:  x77 <= 1
 c56:  x78 <= 1
 c57:  x79 <= 1
 c58:  x80 <= 1
 c59:  x81 <= 1
 c60:  x82 <= 1
 c61:  x83 <= 1
 c62:  x84 <= 1
 c63:  x85 <= 1
 c64:  x86 <= 1
 c65:  x87 <= 1
 c66:  x88 <= 1
 c67:  x89 <= 1
 c68:  x90 <= 1
 c69:  x91 <= 1
 c70:  x92 <= 1
 c71:  x93 <= 1
 c72:  x94 <= 1
 c73:  x95 <= 1
 c74:  x96 <= 1
 c75:  x97 <= 1
 c76:  x98 <= 1
 c77:  x99 <= 1
 c78:  x100 <= 1
 c79:  x101 <= 1
 c80:  x102 <= 1
 c81:  x103 <= 1
 c82:  x104 <= 1
 c83:  x105 <= 1
 c84:  x106 <= 1
 c85:  x107 <= 1
 c86:  x108 <= 1
 c87:  x109 <= 1
 c88:  x110 <= 1
 c89:  x111 <= 1
 c90:  x112 <= 1
 c91:  x113 <= 1
 c92:  x114 <= 1
 c93:  x115 <= 1
 c94:  x116 <= 1
 c95:  x117 <= 1
 c96:  x118 <= 1
 c97:  x119 <= 1
 c98:  x120 <= 1
 c99:  x121 <= 1
 c100: x122 <= 1
 c101: x123 <= 1
 c102: x124 <= 1
 c103: x125 <= 1
 c104: x126 <= 1
 c105: x127 <= 1
 c106: x128 <= 1
 c107: x129 <= 1
 c108: x130 <= 1
 c109: x131 <= 1
 c110: x132 <= 1
 c111: x133 <= 1
 c112: x134 <= 1
 c113: x135 <= 1
 c114: x136 <= 1
 c115: x137 <= 1
 c116: x138 <= 1
 c117: x139 <= 1
 c118: x140 <= 1
 c119: x141 <= 1
 c120: x142 <= 1
 c121: x143 <= 1
 c122: x34 + x35 + x36 + x37 + x38 + x39 + x40 + x41 + x42 + x43 + x44  = 6
 c123: x45 + x46 + x47 + x48 + x49 + x50 + x51 + x52 + x53 + x54 + x55  = 1
 c124: x56 + x57 + x58 + x59 + x60 + x61 + x62 + x63 + x64 + x65 + x66  = 5
 c125: x67 + x68 + x69 + x70 + x71 + x72 + x73 + x74 + x75 + x76 + x77  = 1
 c126: x78 + x79 + x80 + x81 + x82 + x83 + x84 + x85 + x86 + x87 + x88  = 1
 c127: x89 + x90 + x91 + x92 + x93 + x94 + x95 + x96 + x97 + x98 + x99  = 4
 c128: x100 + x101 + x102 + x103 + x104 + x105 + x106 + x107 + x108 + x109
       + x110  = 3
 c129: x111 + x112 + x113 + x114 + x115 + x116 + x117 + x118 + x119 + x120
       + x121  = 2
 c130: x122 + x123 + x124 + x125 + x126 + x127 + x128 + x129 + x130 + x131
       + x132  = 3
 c131: x133 + x134 + x135 + x136 + x137 + x138 + x139 + x140 + x141 + x142
       + x143  = 2
 c132: x42 + x43 + x44  = 0
 c133: x47 + x48 + x49 + x50 + x51 + x52 + x53 + x54 + x55  = 0
 c134: x56 + x57 + x58 + x59 + x66  = 0
 c135: x67 + x70 + x71 + x72 + x73 + x74 + x75 + x76 + x77  = 0
 c136: x78 + x79 + x82 + x83 + x84 + x85 + x86 + x87 + x88  = 0
 c137: x97 + x98 + x99  = 0
 c138: x100 + x101 + x102 + x103 + x104 + x109 + x110  = 0
 c139: x114 + x115 + x116 + x117 + x118 + x119 + x120 + x121  = 0
 c140: x122 + x123 + x132  = 0
 c141: x133 + x141 + x142 + x143  = 0
 c142: x34 + x45 + x56 + x67 + x78 + x89 + x100 + x111 + x122 + x133 <= 10
 c143: x35 + x46 + x57 + x68 + x79 + x90 + x101 + x112 + x123 + x134 <= 10
 c144: x36 + x47 + x58 + x69 + x80 + x91 + x102 + x113 + x124 + x135 <= 10
 c145: x37 + x48 + x59 + x70 + x81 + x92 + x103 + x114 + x125 + x136 <= 10
 c146: x38 + x49 + x60 + x71 + x82 + x93 + x104 + x115 + x126 + x137 <= 10
 c147: x39 + x50 + x61 + x72 + x83 + x94 + x105 + x116 + x127 + x138 <= 10
 c148: x40 + x51 + x62 + x73 + x84 + x95 + x106 + x117 + x128 + x139 <= 10
 c149: x41 + x52 + x63 + x74 + x85 + x96 + x107 + x118 + x129 + x140 <= 10
 c150: x42 + x53 + x64 + x75 + x86 + x97 + x108 + x119 + x130 + x141 <= 10
 c151: x43 + x54 + x65 + x76 + x87 + x98 + x109 + x120 + x131 + x142 <= 10
 c152: x44 + x55 + x66 + x77 + x88 + x99 + x110 + x121 + x132 + x143 <= 10
 c153: x34 + x45 + x56 + x67 + x78 + x89 + x100 + x111 + x122 + x133 <= 10
 c154: x35 + x46 + x57 + x68 + x79 + x90 + x101 + x112 + x123 + x134 <= 10
 c155: x36 + x47 + x58 + x69 + x80 + x91 + x102 + x113 + x124 + x135 <= 10
 c156: x37 + x48 + x59 + x70 + x81 + x92 + x103 + x114 + x125 + x136 <= 10
 c157: x38 + x49 + x60 + x71 + x82 + x93 + x104 + x115 + x126 + x137 <= 10
 c158: x39 + x50 + x61 + x72 + x83 + x94 + x105 + x116 + x127 + x138 <= 10
 c159: x40 + x51 + x62 + x73 + x84 + x95 + x106 + x117 + x128 + x139 <= 10
 c160: x41 + x52 + x63 + x74 + x85 + x96 + x107 + x118 + x129 + x140 <= 10
 c161: x42 + x53 + x64 + x75 + x86 + x97 + x108 + x119 + x130 + x141 <= 10
 c162: x43 + x54 + x65 + x76 + x87 + x98 + x109 + x120 + x131 + x142 <= 10
 c163: x44 + x55 + x66 + x77 + x88 + x99 + x110 + x121 + x132 + x143 <= 10
 c164: - x34 + x144 >= 0
 c165: - x35 + x145 >= 0
 c166: - x36 + x146 >= 0
 c167: - x37 + x147 >= 0
 c168: - x38 + x148 >= 0
 c169: - x39 + x149 >= 0
 c170: - x40 + x150 >= 0
 c171: - x41 + x151 >= 0
 c172: - x42 + x152 >= 0
 c173: - x43 + x153 >= 0
 c174: - x44 + x154 >= 0
 c175: - x45 + x144 >= 0
 c176: - x46 + x145 >= 0
 c177: - x47 + x146 >= 0
 c178: - x48 + x147 >= 0
 c179: - x49 + x148 >= 0
 c180: - x50 + x149 >= 0
 c181: - x51 + x150 >= 0
 c182: - x52 + x151 >= 0
 c183: - x53 + x152 >= 0
 c184: - x54 + x153 >= 0
 c185: - x55 + x154 >= 0
 c186: - x56 + x144 >= 0
 c187: - x57 + x145 >= 0
 c188: - x58 + x146 >= 0
 c189: - x59 + x147 >= 0
 c190: - x60 + x148 >= 0
 c191: - x61 + x149 >= 0
 c192: - x62 + x150 >= 0
 c193: - x63 + x151 >= 0
 c194: - x64 + x152 >= 0
 c195: - x65 + x153 >= 0
 c196: - x66 + x154 >= 0
 c197: - x67 + x144 >= 0
 c198: - x68 + x145 >= 0
 c199: - x69 + x146 >= 0
 c200: - x70 + x147 >= 0
 c201: - x71 + x148 >= 0
 c202: - x72 + x149 >= 0
 c203: - x73 + x150 >= 0
 c204: - x74 + x151 >= 0
 c205: - x75 + x152 >= 0
 c206: - x76 + x153 >= 0
 c207: - x77 + x154 >= 0
 c208: - x78 + x144 >= 0
 c209: - x79 + x145 >= 0
 c210: - x80 + x146 >= 0
 c211: - x81 + x147 >= 0
 c212: - x82 + x148 >= 0
 c213: - x83 + x149 >= 0
 c214: - x84 + x150 >= 0
 c215: - x85 + x151 >= 0
 c216: - x86 + x152 >= 0
 c217: - x87 + x153 >= 0
 c218: - x88 + x154 >= 0
 c219: - x89 + x144 >= 0
 c220: - x90 + x145 >= 0
 c221: - x91 + x146 >= 0
 c222: - x92 + x147 >= 0
 c223: - x93 + x148 >= 0
 c224: - x94 + x149 >= 0
 c225: - x95 + x150 >= 0
 c226: - x96 + x151 >= 0
 c227: - x97 + x152 >= 0
 c228: - x98 + x153 >= 0
 c229: - x99 + x154 >= 0
 c230: - x100 + x144 >= 0
 c231: - x101 + x145 >= 0
 c232: - x102 + x146 >= 0
 c233: - x103 + x147 >= 0
 c234: - x104 + x148 >= 0
 c235: - x105 + x149 >= 0
 c236: - x106 + x150 >= 0
 c237: - x107 + x151 >= 0
 c238: - x108 + x152 >= 0
 c239: - x109 + x153 >= 0
 c240: - x110 + x154 >= 0
 c241: - x111 + x144 >= 0
 c242: - x112 + x145 >= 0
 c243: - x113 + x146 >= 0
 c244: - x114 + x147 >= 0
 c245: - x115 + x148 >= 0
 c246: - x116 + x149 >= 0
 c247: - x117 + x150 >= 0
 c248: - x118 + x151 >= 0
 c249: - x119 + x152 >= 0
 c250: - x120 + x153 >= 0
 c251: - x121 + x154 >= 0
 c252: - x122 + x144 >= 0
 c253: - x123 + x145 >= 0
 c254: - x124 + x146 >= 0
 c255: - x125 + x147 >= 0
 c256: - x126 + x148 >= 0
 c257: - x127 + x149 >= 0
 c258: - x128 + x150 >= 0
 c259: - x129 + x151 >= 0
 c260: - x130 + x152 >= 0
 c261: - x131 + x153 >= 0
 c262: - x132 + x154 >= 0
 c263: - x133 + x144 >= 0
 c264: - x134 + x145 >= 0
 c265: - x135 + x146 >= 0
 c266: - x136 + x147 >= 0
 c267: - x137 + x148 >= 0
 c268: - x138 + x149 >= 0
 c269: - x139 + x150 >= 0
 c270: - x140 + x151 >= 0
 c271: - x141 + x152 >= 0
 c272: - x142 + x153 >= 0
 c273: - x143 + x154 >= 0
 c274: - x2 + 8 x34 + 2 x45 + 3 x56 + 4 x67 + 4 x78 + 4 x89 + 5 x100 + 6 x111
       + 6 x122 + 7 x133 + x155 - x156  = 0
 c275: - x5 + 8 x35 + 2 x46 + 3 x57 + 4 x68 + 4 x79 + 4 x90 + 5 x101 + 6 x112
       + 6 x123 + 7 x134 - x155 + x157  = 0
 c276: - x8 + 8 x36 + 2 x47 + 3 x58 + 4 x69 + 4 x80 + 4 x91 + 5 x102 + 6 x113
       + 6 x124 + 7 x135 - x157 + x158  = 0
 c277: - x11 + 8 x37 + 2 x48 + 3 x59 + 4 x70 + 4 x81 + 4 x92 + 5 x103 + 6 x114
       + 6 x125 + 7 x136 - x158 + x159  = 0
 c278: - x14 + 8 x38 + 2 x49 + 3 x60 + 4 x71 + 4 x82 + 4 x93 + 5 x104 + 6 x115
       + 6 x126 + 7 x137 - x159 + x160  = 0
 c279: - x17 + 8 x39 + 2 x50 + 3 x61 + 4 x72 + 4 x83 + 4 x94 + 5 x105 + 6 x116
       + 6 x127 + 7 x138 - x160 + x161  = 0
 c280: - x20 + 8 x40 + 2 x51 + 3 x62 + 4 x73 + 4 x84 + 4 x95 + 5 x106 + 6 x117
       + 6 x128 + 7 x139 - x161 + x162  = 0
 c281: - x23 + 8 x41 + 2 x52 + 3 x63 + 4 x74 + 4 x85 + 4 x96 + 5 x107 + 6 x118
       + 6 x129 + 7 x140 - x162 + x163  = 0
 c282: - x26 + 8 x42 + 2 x53 + 3 x64 + 4 x75 + 4 x86 + 4 x97 + 5 x108 + 6 x119
       + 6 x130 + 7 x141 - x163 + x164  = 0
 c283: - x29 + 8 x43 + 2 x54 + 3 x65 + 4 x76 + 4 x87 + 4 x98 + 5 x109 + 6 x120
       + 6 x131 + 7 x142 - x164 + x165  = 0
 c284: - x32 + 8 x44 + 2 x55 + 3 x66 + 4 x77 + 4 x88 + 4 x99 + 5 x110 + 6 x121
       + 6 x132 + 7 x143 - x165 + x166  = 0
 c285: x156  = 0
 c286: - x156 + x166 >= 0
Bounds
      x1 Free
      x4 Free
      x7 Free
      x10 Free
      x13 Free
      x16 Free
      x19 Free
      x22 Free
      x25 Free
      x28 Free
      x31 Free
 0 <= x34 <= 1
 0 <= x35 <= 1
 0 <= x36 <= 1
 0 <= x37 <= 1
 0 <= x38 <= 1
 0 <= x39 <= 1
 0 <= x40 <= 1
 0 <= x41 <= 1
 0 <= x42 <= 1
 0 <= x43 <= 1
 0 <= x44 <= 1
 0 <= x45 <= 1
 0 <= x46 <= 1
 0 <= x47 <= 1
 0 <= x48 <= 1
 0 <= x49 <= 1
 0 <= x50 <= 1
 0 <= x51 <= 1
 0 <= x52 <= 1
 0 <= x53 <= 1
 0 <= x54 <= 1
 0 <= x55 <= 1
 0 <= x56 <= 1
 0 <= x57 <= 1
 0 <= x58 <= 1
 0 <= x59 <= 1
 0 <= x60 <= 1
 0 <= x61 <= 1
 0 <= x62 <= 1
 0 <= x63 <= 1
 0 <= x64 <= 1
 0 <= x65 <= 1
 0 <= x66 <= 1
 0 <= x67 <= 1
 0 <= x68 <= 1
 0 <= x69 <= 1
 0 <= x70 <= 1
 0 <= x71 <= 1
 0 <= x72 <= 1
 0 <= x73 <= 1
 0 <= x74 <= 1
 0 <= x75 <= 1
 0 <= x76 <= 1
 0 <= x77 <= 1
 0 <= x78 <= 1
 0 <= x79 <= 1
 0 <= x80 <= 1
 0 <= x81 <= 1
 0 <= x82 <= 1
 0 <= x83 <= 1
 0 <= x84 <= 1
 0 <= x85 <= 1
 0 <= x86 <= 1
 0 <= x87 <= 1
 0 <= x88 <= 1
 0 <= x89 <= 1
 0 <= x90 <= 1
 0 <= x91 <= 1
 0 <= x92 <= 1
 0 <= x93 <= 1
 0 <= x94 <= 1
 0 <= x95 <= 1
 0 <= x96 <= 1
 0 <= x97 <= 1
 0 <= x98 <= 1
 0 <= x99 <= 1
 0 <= x100 <= 1
 0 <= x101 <= 1
 0 <= x102 <= 1
 0 <= x103 <= 1
 0 <= x104 <= 1
 0 <= x105 <= 1
 0 <= x106 <= 1
 0 <= x107 <= 1
 0 <= x108 <= 1
 0 <= x109 <= 1
 0 <= x110 <= 1
 0 <= x111 <= 1
 0 <= x112 <= 1
 0 <= x113 <= 1
 0 <= x114 <= 1
 0 <= x115 <= 1
 0 <= x116 <= 1
 0 <= x117 <= 1
 0 <= x118 <= 1
 0 <= x119 <= 1
 0 <= x120 <= 1
 0 <= x121 <= 1
 0 <= x122 <= 1
 0 <= x123 <= 1
 0 <= x124 <= 1
 0 <= x125 <= 1
 0 <= x126 <= 1
 0 <= x127 <= 1
 0 <= x128 <= 1
 0 <= x129 <= 1
 0 <= x130 <= 1
 0 <= x131 <= 1
 0 <= x132 <= 1
 0 <= x133 <= 1
 0 <= x134 <= 1
 0 <= x135 <= 1
 0 <= x136 <= 1
 0 <= x137 <= 1
 0 <= x138 <= 1
 0 <= x139 <= 1
 0 <= x140 <= 1
 0 <= x141 <= 1
 0 <= x142 <= 1
 0 <= x143 <= 1
 0 <= x144 <= 1
 0 <= x145 <= 1
 0 <= x146 <= 1
 0 <= x147 <= 1
 0 <= x148 <= 1
 0 <= x149 <= 1
 0 <= x150 <= 1
 0 <= x151 <= 1
 0 <= x152 <= 1
 0 <= x153 <= 1
 0 <= x154 <= 1
 0 <= x155 <= 20
 0 <= x156 <= 20
 0 <= x157 <= 20
 0 <= x158 <= 20
 0 <= x159 <= 20
 0 <= x160 <= 20
 0 <= x161 <= 20
 0 <= x162 <= 20
 0 <= x163 <= 20
 0 <= x164 <= 20
 0 <= x165 <= 20
 0 <= x166 <= 20
Binaries
 x34  x35  x36  x37  x38  x39  x40  x41  x42  x43  x44  x45  x46  x47  x48 
 x49  x50  x51  x52  x53  x54  x55  x56  x57  x58  x59  x60  x61  x62  x63 
 x64  x65  x66  x67  x68  x69  x70  x71  x72  x73  x74  x75  x76  x77  x78 
 x79  x80  x81  x82  x83  x84  x85  x86  x87  x88  x89  x90  x91  x92  x93 
 x94  x95  x96  x97  x98  x99  x100  x101  x102  x103  x104  x105  x106  x107 
 x108  x109  x110  x111  x112  x113  x114  x115  x116  x117  x118  x119  x120 
 x121  x122  x123  x124  x125  x126  x127  x128  x129  x130  x131  x132  x133 
 x134  x135  x136  x137  x138  x139  x140  x141  x142  x143  x144  x145  x146 
 x147  x148  x149  x150  x151  x152  x153  x154 
Pwl
 p1:  x1 = x2 2 (5, 10) 1.5
 p2:  x4 = x5 2 (5, 10) 1.5
 p3:  x7 = x8 2 (5, 10) 1.5
 p4:  x10 = x11 2 (5, 10) 1.5
 p5:  x13 = x14 2 (5, 10) 1.5
 p6:  x16 = x17 2 (5, 10) 1.5
 p7:  x19 = x20 2 (5, 10) 1.5
 p8:  x22 = x23 2 (5, 10) 1.5
 p9:  x25 = x26 2 (5, 10) 1.5
 p10: x28 = x29 2 (5, 10) 1.5
 p11: x31 = x32 2 (5, 10) 1.5
End
